3 
4 
5  20 35 50 
6  05 20 32 39 47 54 
7  00 08 15 23 30 38 45 53 
8  00 08 15 23 30 38 45 53 
9  00 08 15 23 30 38 45 53 
10  00 08 15 23 30 38 45 53 
11  00 08 15 23 30 38 45 53 
12  00 08 15 23 30 38 45 53 
13  00 09 17 24 31 39 46 54 
14  01 09 16 24 31 39 46 54 
15  01 09 16 23 31 38 46 53 
16  01 08 16 23 31 38 46 53 
17  01 08 16 23 31 38 46 53 
18  01 08 16 23 31 38 46 53 
19  01 07 14 21 30 38 46 53 
20  01 09 16 23 31 38 51 
21  06 21 36 51 
22  06 21 34 49 
23  02 13 
0 
